jobs  (incl. supersource/sink ):	102
RESOURCES
- renewable                 : 2 R
- nonrenewable              : 2 N
- doubly constrained        : 0 D
************************************************************************
PRECEDENCE RELATIONS:
jobnr.    #modes  #successors   successors
1	1	28		2 3 4 5 6 7 8 9 10 11 12 13 14 15 16 17 19 20 21 23 24 25 26 28 30 33 35 36 
2	6	19		101 100 99 76 75 74 70 64 63 58 57 53 52 46 44 41 38 22 18 
3	6	21		101 100 99 95 76 74 73 72 71 70 58 56 53 50 48 47 41 40 39 38 29 
4	6	16		100 96 75 74 73 64 63 57 56 55 52 44 37 31 29 22 
5	6	17		101 99 98 77 76 75 73 70 69 65 57 51 44 43 40 38 27 
6	6	19		101 96 92 89 77 74 72 71 64 63 56 51 48 47 46 44 42 40 37 
7	6	18		99 96 95 94 93 87 76 73 72 70 67 63 58 56 50 44 38 29 
8	6	15		99 92 76 75 71 69 65 64 60 58 56 50 38 37 27 
9	6	9		100 91 75 74 71 69 64 34 22 
10	6	23		101 99 98 97 95 94 87 85 73 71 70 69 68 67 65 62 61 60 59 53 52 49 48 
11	6	18		101 99 98 97 92 89 75 73 71 69 68 67 65 60 51 48 45 44 
12	6	17		100 99 98 97 95 92 89 88 75 74 72 62 60 59 50 42 41 
13	6	14		101 99 96 95 93 90 85 74 68 62 58 54 52 32 
14	6	23		101 100 99 97 96 95 92 89 87 86 85 83 80 73 72 70 67 65 62 61 60 58 48 
15	6	17		101 99 95 93 92 90 89 73 72 71 69 68 66 62 58 46 40 
16	6	20		101 97 94 93 92 89 87 85 77 76 70 69 68 67 66 63 62 60 58 50 
17	6	15		101 100 99 96 95 94 92 89 76 70 68 66 62 45 40 
18	6	16		98 97 96 94 93 92 91 90 72 71 69 68 61 59 49 40 
19	6	12		100 96 83 73 72 71 70 65 60 59 48 37 
20	6	14		101 96 93 92 91 89 81 70 68 65 64 63 58 40 
21	6	20		101 100 99 95 91 90 89 87 86 85 83 76 74 72 70 67 66 63 61 59 
22	6	11		98 95 93 89 81 68 66 61 59 50 40 
23	6	11		100 99 94 91 72 71 70 66 62 61 40 
24	6	17		100 98 96 93 92 91 88 86 85 81 80 79 71 69 65 61 58 
25	6	16		99 97 94 92 91 89 88 85 83 81 73 71 70 61 59 57 
26	6	14		100 93 92 90 89 88 83 75 72 71 70 65 63 59 
27	6	15		100 97 96 94 91 88 86 85 84 83 80 72 62 59 48 
28	6	11		98 87 86 85 68 66 62 61 59 51 46 
29	6	9		98 92 89 85 81 61 60 59 42 
30	6	15		100 96 91 87 86 85 84 82 80 72 70 69 68 67 60 
31	6	14		97 94 92 89 87 81 80 70 69 66 62 61 60 59 
32	6	14		97 94 92 91 89 88 87 79 72 71 69 66 61 59 
33	6	12		93 92 89 87 85 82 81 80 74 70 68 66 
34	6	12		99 96 92 90 89 87 86 83 82 80 70 65 
35	6	12		90 89 87 86 85 84 83 81 71 66 62 59 
36	6	9		98 95 85 81 80 66 61 59 50 
37	6	12		98 95 91 90 87 86 85 84 81 80 67 66 
38	6	9		89 88 85 84 80 68 66 62 59 
39	6	9		87 86 85 84 80 67 66 60 59 
40	6	8		87 86 85 84 83 80 67 60 
41	6	9		96 94 93 87 85 82 81 79 68 
42	6	7		91 90 86 82 80 69 65 
43	6	8		92 84 83 82 80 79 71 66 
44	6	7		91 83 81 80 79 66 61 
45	6	5		91 86 80 79 58 
46	6	7		94 84 82 81 80 79 78 
47	6	7		93 90 87 83 81 80 78 
48	6	5		93 82 81 79 66 
49	6	5		86 83 81 80 66 
50	6	5		90 86 82 79 78 
51	6	5		95 94 90 81 80 
52	6	5		89 84 81 79 78 
53	6	5		91 90 83 79 78 
54	6	5		92 88 86 81 80 
55	6	4		94 89 80 78 
56	6	3		97 80 79 
57	6	2		80 66 
58	6	1		59 
59	6	2		82 78 
60	6	2		79 78 
61	6	2		84 78 
62	6	2		82 79 
63	6	2		84 80 
64	6	2		87 85 
65	6	1		66 
66	6	1		78 
67	6	1		88 
68	6	1		83 
69	6	1		83 
70	6	1		79 
71	6	1		78 
72	6	1		81 
73	6	1		78 
74	6	1		84 
75	6	1		85 
76	6	1		81 
77	6	1		81 
78	6	1		102 
79	6	1		102 
80	6	1		102 
81	6	1		102 
82	6	1		102 
83	6	1		102 
84	6	1		102 
85	6	1		102 
86	6	1		102 
87	6	1		102 
88	6	1		102 
89	6	1		102 
90	6	1		102 
91	6	1		102 
92	6	1		102 
93	6	1		102 
94	6	1		102 
95	6	1		102 
96	6	1		102 
97	6	1		102 
98	6	1		102 
99	6	1		102 
100	6	1		102 
101	6	1		102 
102	1	0		
************************************************************************
REQUESTS/DURATIONS
jobnr.	mode	dur	R1	R2	N1	N2	
------------------------------------------------------------------------
1	1	0	0	0	0	0	
2	1	4	2	4	17	11	
	2	11	2	3	16	9	
	3	14	2	3	16	7	
	4	15	2	2	16	4	
	5	18	2	2	16	3	
	6	20	2	1	16	1	
3	1	6	2	1	10	18	
	2	9	2	1	10	15	
	3	10	2	1	10	13	
	4	11	2	1	10	9	
	5	13	2	1	9	8	
	6	18	2	1	9	4	
4	1	6	3	3	10	9	
	2	7	3	3	10	8	
	3	8	3	3	10	7	
	4	9	3	2	10	7	
	5	14	3	2	10	6	
	6	19	3	2	10	5	
5	1	6	4	3	1	18	
	2	7	4	3	1	17	
	3	8	4	3	1	16	
	4	10	4	2	1	18	
	5	17	4	2	1	17	
	6	19	4	2	1	16	
6	1	3	3	3	19	6	
	2	9	3	2	19	5	
	3	12	3	2	18	4	
	4	14	3	1	18	3	
	5	15	3	1	17	3	
	6	16	3	1	17	1	
7	1	1	4	5	15	17	
	2	2	3	5	14	14	
	3	3	3	5	13	13	
	4	4	2	5	11	10	
	5	15	1	5	9	7	
	6	19	1	5	6	3	
8	1	10	4	1	10	13	
	2	15	4	1	8	13	
	3	16	4	1	5	13	
	4	17	4	1	4	13	
	5	18	4	1	4	12	
	6	19	4	1	1	12	
9	1	2	3	3	19	14	
	2	3	2	3	18	13	
	3	11	2	3	15	11	
	4	12	2	3	14	11	
	5	18	2	3	11	10	
	6	19	2	3	10	9	
10	1	1	1	3	5	8	
	2	3	1	2	5	8	
	3	8	1	2	5	7	
	4	10	1	2	4	7	
	5	11	1	1	4	7	
	6	19	1	1	3	7	
11	1	4	5	4	8	15	
	2	10	5	4	6	12	
	3	11	5	4	4	11	
	4	16	5	3	3	10	
	5	17	5	3	2	8	
	6	20	5	2	2	6	
12	1	1	4	4	4	16	
	2	2	3	4	3	15	
	3	13	3	4	3	11	
	4	15	2	4	2	10	
	5	18	2	4	2	6	
	6	19	1	4	2	5	
13	1	1	1	1	15	12	
	2	5	1	1	13	12	
	3	11	1	1	9	9	
	4	16	1	1	7	9	
	5	17	1	1	6	6	
	6	18	1	1	4	5	
14	1	1	4	1	15	15	
	2	2	3	1	14	13	
	3	4	3	1	13	12	
	4	5	3	1	13	10	
	5	8	2	1	12	8	
	6	11	2	1	12	7	
15	1	6	5	2	6	20	
	2	8	4	2	5	16	
	3	11	3	2	5	13	
	4	14	3	1	5	11	
	5	15	3	1	5	9	
	6	20	2	1	5	7	
16	1	3	4	4	6	15	
	2	4	4	3	6	14	
	3	10	4	3	6	13	
	4	11	4	3	6	12	
	5	17	4	2	5	13	
	6	18	4	1	5	13	
17	1	4	1	3	7	7	
	2	8	1	3	7	6	
	3	9	1	2	7	4	
	4	13	1	2	6	3	
	5	14	1	2	6	2	
	6	15	1	1	6	2	
18	1	1	4	3	10	12	
	2	3	4	2	10	10	
	3	12	4	2	9	8	
	4	14	3	2	7	8	
	5	16	3	2	7	6	
	6	17	2	2	6	6	
19	1	2	3	4	17	9	
	2	5	3	4	16	8	
	3	11	3	4	16	6	
	4	12	2	4	16	5	
	5	13	2	4	15	4	
	6	18	2	4	15	3	
20	1	4	2	3	20	15	
	2	5	1	2	19	15	
	3	7	1	2	17	13	
	4	11	1	1	17	8	
	5	13	1	1	16	7	
	6	20	1	1	15	5	
21	1	4	3	3	10	8	
	2	5	3	2	9	8	
	3	6	3	2	9	7	
	4	8	3	2	8	7	
	5	12	2	1	7	6	
	6	18	2	1	6	6	
22	1	2	3	5	11	18	
	2	3	3	4	9	18	
	3	11	3	3	7	17	
	4	12	3	3	7	16	
	5	13	3	3	5	17	
	6	17	3	2	3	16	
23	1	2	5	4	14	15	
	2	3	4	4	13	13	
	3	5	4	4	10	13	
	4	11	3	4	7	12	
	5	12	3	4	3	11	
	6	13	2	4	1	11	
24	1	3	4	3	9	8	
	2	4	3	3	7	8	
	3	5	2	3	6	8	
	4	8	2	2	5	7	
	5	15	1	1	3	7	
	6	18	1	1	2	7	
25	1	8	3	4	14	12	
	2	9	2	3	13	12	
	3	11	2	3	13	11	
	4	14	1	3	11	12	
	5	15	1	3	11	11	
	6	17	1	3	10	12	
26	1	2	1	5	13	15	
	2	3	1	5	13	13	
	3	4	1	5	12	11	
	4	5	1	5	11	8	
	5	15	1	5	10	6	
	6	19	1	5	8	6	
27	1	3	3	5	18	19	
	2	5	2	4	16	16	
	3	8	2	4	13	14	
	4	16	2	4	11	12	
	5	17	2	4	7	9	
	6	18	2	4	5	5	
28	1	2	4	1	17	2	
	2	7	4	1	14	2	
	3	15	4	1	11	2	
	4	16	4	1	10	2	
	5	17	3	1	8	2	
	6	18	3	1	6	2	
29	1	2	4	5	19	11	
	2	3	4	4	17	9	
	3	4	4	3	16	8	
	4	8	3	3	14	6	
	5	12	3	1	11	5	
	6	15	2	1	10	2	
30	1	1	4	5	16	7	
	2	2	3	4	14	6	
	3	4	3	4	14	5	
	4	11	3	4	12	5	
	5	14	3	4	11	4	
	6	20	3	4	10	4	
31	1	6	5	2	16	10	
	2	9	5	2	11	9	
	3	12	5	2	9	9	
	4	13	5	2	8	8	
	5	14	5	2	4	7	
	6	19	5	2	1	7	
32	1	4	4	4	16	2	
	2	8	3	4	15	2	
	3	9	3	4	15	1	
	4	10	2	4	15	2	
	5	13	2	3	15	2	
	6	17	1	3	15	2	
33	1	1	4	5	3	14	
	2	6	4	4	3	12	
	3	11	4	4	3	8	
	4	12	4	3	3	6	
	5	19	3	2	3	6	
	6	20	3	2	3	3	
34	1	5	5	4	13	8	
	2	6	4	4	12	7	
	3	7	4	4	9	6	
	4	9	4	4	9	5	
	5	13	4	4	7	3	
	6	20	4	4	4	2	
35	1	2	4	3	19	8	
	2	8	3	3	18	6	
	3	12	3	2	18	6	
	4	16	2	2	17	6	
	5	17	2	1	17	5	
	6	18	2	1	16	4	
36	1	4	5	3	11	19	
	2	5	3	3	11	18	
	3	9	3	3	11	17	
	4	12	2	2	11	18	
	5	15	1	2	11	16	
	6	18	1	1	11	16	
37	1	4	4	5	18	17	
	2	8	3	4	17	13	
	3	12	3	4	13	10	
	4	16	2	3	11	8	
	5	19	1	3	10	6	
	6	20	1	3	7	4	
38	1	2	2	2	16	5	
	2	3	1	2	16	5	
	3	9	1	2	14	5	
	4	10	1	2	14	4	
	5	12	1	2	12	5	
	6	17	1	2	11	5	
39	1	5	5	5	14	17	
	2	8	4	4	13	15	
	3	10	3	4	12	11	
	4	14	3	3	11	11	
	5	17	3	3	10	9	
	6	18	2	3	9	5	
40	1	13	3	3	10	17	
	2	14	2	3	9	14	
	3	15	2	3	9	13	
	4	17	1	2	8	13	
	5	18	1	2	8	11	
	6	20	1	2	7	9	
41	1	4	1	3	14	20	
	2	5	1	2	11	15	
	3	9	1	2	11	14	
	4	13	1	2	8	12	
	5	14	1	1	5	9	
	6	18	1	1	2	7	
42	1	4	4	4	12	10	
	2	5	4	3	9	10	
	3	6	4	3	8	9	
	4	8	3	3	6	7	
	5	9	3	2	4	7	
	6	17	3	2	4	5	
43	1	1	3	3	17	14	
	2	3	3	3	17	13	
	3	14	3	3	15	14	
	4	16	2	3	15	14	
	5	17	1	3	13	14	
	6	20	1	3	13	13	
44	1	3	4	3	7	19	
	2	8	4	2	7	14	
	3	10	4	2	5	11	
	4	13	4	2	5	10	
	5	15	4	1	4	4	
	6	20	4	1	2	4	
45	1	5	4	4	14	8	
	2	8	4	3	12	8	
	3	11	4	3	11	8	
	4	13	3	3	9	8	
	5	16	2	3	6	8	
	6	19	2	3	6	7	
46	1	7	5	3	18	10	
	2	8	4	2	18	8	
	3	12	4	2	18	7	
	4	13	3	2	18	7	
	5	14	3	2	18	5	
	6	17	3	2	18	4	
47	1	5	1	5	19	7	
	2	7	1	4	15	6	
	3	10	1	4	12	5	
	4	16	1	3	11	5	
	5	18	1	3	9	3	
	6	20	1	3	4	2	
48	1	1	4	4	6	18	
	2	4	3	3	6	14	
	3	11	3	3	6	13	
	4	13	3	3	6	12	
	5	14	1	3	6	9	
	6	19	1	3	6	8	
49	1	5	3	4	18	9	
	2	8	3	4	17	9	
	3	9	3	4	16	8	
	4	15	3	3	15	8	
	5	16	2	2	15	7	
	6	20	2	2	14	6	
50	1	1	4	3	13	15	
	2	2	3	3	13	14	
	3	12	3	3	11	13	
	4	16	2	3	11	12	
	5	17	2	3	10	9	
	6	18	2	3	8	9	
51	1	3	1	4	12	15	
	2	8	1	4	10	12	
	3	9	1	4	8	10	
	4	13	1	4	8	8	
	5	16	1	4	6	5	
	6	17	1	4	4	4	
52	1	1	4	4	19	14	
	2	3	4	3	18	13	
	3	4	3	2	18	12	
	4	9	3	2	18	11	
	5	14	2	1	17	10	
	6	19	1	1	17	8	
53	1	2	2	3	13	8	
	2	6	2	2	11	8	
	3	8	2	2	10	7	
	4	12	2	2	9	7	
	5	17	2	2	6	7	
	6	18	2	2	5	6	
54	1	1	4	3	9	16	
	2	2	3	2	9	15	
	3	7	3	2	8	14	
	4	8	3	1	8	11	
	5	10	3	1	8	10	
	6	16	3	1	7	9	
55	1	3	2	2	10	15	
	2	11	1	2	10	12	
	3	12	1	2	8	12	
	4	14	1	2	8	11	
	5	18	1	2	6	9	
	6	20	1	2	4	8	
56	1	3	5	2	14	18	
	2	6	4	2	14	17	
	3	11	4	2	14	14	
	4	12	3	1	14	13	
	5	13	2	1	13	10	
	6	20	2	1	13	9	
57	1	3	2	1	14	7	
	2	10	2	1	13	7	
	3	13	2	1	13	6	
	4	16	2	1	13	5	
	5	17	2	1	13	4	
	6	18	2	1	13	3	
58	1	2	3	3	14	12	
	2	4	3	3	12	12	
	3	6	3	3	10	10	
	4	8	3	3	7	9	
	5	11	3	2	3	9	
	6	17	3	2	1	8	
59	1	6	4	5	11	15	
	2	8	4	5	11	14	
	3	9	4	5	11	13	
	4	11	4	5	11	12	
	5	15	3	5	11	14	
	6	19	3	5	11	13	
60	1	4	1	5	18	14	
	2	8	1	4	17	12	
	3	9	1	4	17	11	
	4	10	1	3	17	10	
	5	17	1	3	17	9	
	6	18	1	2	17	9	
61	1	4	5	2	11	17	
	2	13	4	2	10	14	
	3	16	4	2	9	14	
	4	17	4	2	6	10	
	5	18	4	2	6	9	
	6	20	4	2	4	7	
62	1	2	5	3	18	15	
	2	3	4	2	15	12	
	3	4	3	2	14	12	
	4	7	3	2	12	9	
	5	8	3	2	11	5	
	6	19	2	2	10	3	
63	1	2	1	3	20	4	
	2	11	1	3	19	4	
	3	12	1	3	18	4	
	4	16	1	2	17	4	
	5	17	1	1	17	4	
	6	19	1	1	16	4	
64	1	8	2	5	16	18	
	2	9	2	4	16	15	
	3	16	2	3	15	15	
	4	17	2	3	15	11	
	5	18	2	1	14	9	
	6	19	2	1	13	9	
65	1	3	2	2	16	11	
	2	4	2	1	14	9	
	3	9	2	1	14	8	
	4	13	2	1	14	7	
	5	14	2	1	13	8	
	6	18	2	1	12	7	
66	1	2	5	4	10	7	
	2	5	4	4	10	6	
	3	8	4	4	10	5	
	4	9	3	4	9	5	
	5	10	3	3	9	5	
	6	11	2	3	8	4	
67	1	7	1	3	1	17	
	2	8	1	3	1	16	
	3	10	1	3	1	15	
	4	17	1	2	1	15	
	5	19	1	2	1	14	
	6	20	1	2	1	13	
68	1	8	4	4	16	14	
	2	9	4	4	15	14	
	3	13	4	4	14	14	
	4	14	4	4	14	13	
	5	19	4	4	12	14	
	6	20	4	4	12	13	
69	1	8	2	5	6	19	
	2	12	1	4	6	13	
	3	15	1	4	6	11	
	4	17	1	3	5	11	
	5	18	1	3	4	7	
	6	20	1	2	4	4	
70	1	2	4	3	12	6	
	2	3	4	3	11	6	
	3	9	3	3	11	6	
	4	13	3	3	10	6	
	5	19	2	3	9	6	
	6	20	2	3	9	5	
71	1	4	4	4	16	16	
	2	5	3	3	16	16	
	3	12	3	3	16	13	
	4	14	3	2	16	10	
	5	15	2	2	15	10	
	6	18	2	2	15	8	
72	1	3	5	5	9	14	
	2	5	4	5	7	14	
	3	10	4	5	7	11	
	4	11	4	5	5	10	
	5	12	4	5	5	9	
	6	13	4	5	4	6	
73	1	3	4	4	20	17	
	2	10	4	4	19	14	
	3	12	4	4	19	13	
	4	15	4	3	19	12	
	5	19	4	3	18	8	
	6	20	4	2	18	8	
74	1	1	3	2	7	12	
	2	2	2	2	7	11	
	3	4	2	2	7	9	
	4	11	2	2	6	8	
	5	12	1	2	6	7	
	6	13	1	2	5	7	
75	1	1	3	4	20	10	
	2	7	2	4	20	9	
	3	10	2	4	20	8	
	4	13	2	4	20	7	
	5	14	2	4	20	6	
	6	18	2	4	20	5	
76	1	7	3	2	4	16	
	2	9	3	2	3	14	
	3	14	2	2	3	13	
	4	15	2	2	2	13	
	5	16	2	2	2	11	
	6	17	1	2	2	11	
77	1	2	4	1	7	19	
	2	4	3	1	6	16	
	3	5	3	1	6	15	
	4	6	3	1	6	12	
	5	11	3	1	5	11	
	6	12	3	1	5	8	
78	1	4	3	3	16	17	
	2	7	2	2	13	17	
	3	9	2	2	11	17	
	4	10	2	1	8	17	
	5	17	2	1	6	17	
	6	18	2	1	1	17	
79	1	7	1	3	10	17	
	2	8	1	2	10	16	
	3	9	1	2	10	15	
	4	10	1	2	10	14	
	5	10	1	1	10	17	
	6	11	1	1	10	16	
80	1	1	4	2	6	13	
	2	5	4	2	5	12	
	3	9	4	2	5	11	
	4	12	4	2	4	11	
	5	14	3	2	4	11	
	6	15	3	2	4	10	
81	1	3	2	3	18	8	
	2	8	2	3	17	7	
	3	11	2	3	15	7	
	4	12	2	2	10	6	
	5	14	2	1	10	5	
	6	17	2	1	7	5	
82	1	6	3	2	13	8	
	2	7	2	2	13	6	
	3	8	2	2	13	5	
	4	18	2	2	13	4	
	5	19	2	2	13	3	
	6	20	2	2	13	2	
83	1	2	2	2	11	19	
	2	6	2	2	11	17	
	3	9	2	2	10	16	
	4	17	2	1	8	15	
	5	18	1	1	7	14	
	6	19	1	1	7	13	
84	1	1	5	4	4	7	
	2	7	4	4	3	6	
	3	11	4	4	3	5	
	4	13	3	3	3	6	
	5	15	3	2	2	5	
	6	18	3	2	2	4	
85	1	3	3	4	11	16	
	2	4	3	4	11	15	
	3	5	3	4	11	14	
	4	6	3	4	11	13	
	5	8	3	3	11	11	
	6	15	3	3	11	10	
86	1	2	4	2	18	12	
	2	6	4	2	15	10	
	3	7	3	2	14	10	
	4	10	3	2	14	8	
	5	19	1	2	12	8	
	6	20	1	2	11	7	
87	1	3	4	4	14	15	
	2	6	3	3	13	10	
	3	12	3	2	11	8	
	4	13	3	2	9	7	
	5	15	2	1	8	3	
	6	19	2	1	6	1	
88	1	4	3	5	7	16	
	2	12	3	4	7	16	
	3	14	3	4	7	15	
	4	15	3	3	6	14	
	5	18	3	3	5	13	
	6	19	3	3	5	12	
89	1	3	4	5	5	13	
	2	5	4	4	4	13	
	3	6	4	3	3	12	
	4	9	4	3	3	10	
	5	13	3	3	2	10	
	6	15	3	2	2	9	
90	1	3	3	4	16	12	
	2	4	3	3	16	12	
	3	7	3	3	16	10	
	4	8	2	2	16	9	
	5	11	2	1	16	7	
	6	13	2	1	16	5	
91	1	2	4	4	17	9	
	2	5	3	3	13	9	
	3	7	3	3	12	9	
	4	8	2	3	11	8	
	5	9	2	3	10	8	
	6	11	2	3	7	8	
92	1	4	4	1	13	19	
	2	5	4	1	9	15	
	3	11	4	1	9	14	
	4	12	3	1	5	12	
	5	13	2	1	4	10	
	6	14	2	1	2	7	
93	1	4	4	3	17	8	
	2	8	4	3	17	7	
	3	10	4	2	14	7	
	4	12	4	2	12	7	
	5	14	4	2	9	7	
	6	15	4	1	8	7	
94	1	12	3	4	15	7	
	2	13	3	3	15	7	
	3	14	3	3	15	6	
	4	16	3	3	15	5	
	5	17	3	1	15	7	
	6	18	3	1	15	6	
95	1	3	1	2	16	17	
	2	5	1	2	15	16	
	3	7	1	2	12	16	
	4	8	1	2	12	15	
	5	10	1	2	9	15	
	6	14	1	2	9	14	
96	1	5	4	1	15	14	
	2	8	4	1	12	13	
	3	16	4	1	8	13	
	4	17	3	1	7	10	
	5	18	2	1	4	9	
	6	19	2	1	1	9	
97	1	2	3	5	9	9	
	2	9	3	4	7	9	
	3	14	3	3	7	8	
	4	15	3	3	7	7	
	5	17	3	1	6	5	
	6	20	3	1	5	5	
98	1	5	4	3	18	18	
	2	6	4	2	18	13	
	3	10	4	2	14	12	
	4	13	4	2	12	9	
	5	16	4	1	10	8	
	6	18	4	1	9	5	
99	1	4	4	3	19	10	
	2	8	4	2	16	9	
	3	9	4	2	15	8	
	4	16	4	2	14	8	
	5	18	3	2	12	8	
	6	20	3	2	10	7	
100	1	4	5	3	12	13	
	2	8	4	3	11	12	
	3	12	4	3	11	11	
	4	13	4	2	11	11	
	5	17	4	1	9	9	
	6	19	4	1	9	8	
101	1	1	3	1	7	13	
	2	10	2	1	6	12	
	3	11	2	1	5	11	
	4	15	2	1	4	10	
	5	19	2	1	3	10	
	6	20	2	1	1	9	
102	1	0	0	0	0	0	
************************************************************************

 RESOURCE AVAILABILITIES 
	R 1	R 2	N 1	N 2
	48	46	1156	1145

************************************************************************
